p cnf 78 295
3 1 0
3 -2 0
-1 2 -3 0
-2 -4 -5 0
2 4 -5 0
-2 4 5 0
2 -4 5 0
6 3 0
6 -5 0
-3 5 -6 0
-9 7 0
-9 -8 0
-7 8 9 0
10 11 -12 0
-10 -11 -12 0
10 -11 12 0
-10 11 12 0
13 12 0
13 12 0
-12 -13 0
-14 9 0
-14 -13 0
-9 13 14 0
16 1 0
16 15 0
-1 -15 -16 0
17 2 0
17 -15 0
-2 15 -17 0
-18 -16 0
-18 -17 0
16 17 18 0
19 2 0
19 -3 0
-2 3 -19 0
20 -18 0
20 19 0
18 -19 -20 0
14 20 -21 0
-14 -20 -21 0
14 -20 21 0
-14 20 21 0
-22 -6 0
-22 -21 0
6 21 22 0
23 10 0
23 -2 0
-10 2 -23 0
1 -23 -24 0
-1 23 -24 0
1 23 24 0
-1 -23 24 0
25 10 0
25 24 0
-10 -24 -25 0
26 15 0
26 -4 0
-15 4 -26 0
27 25 0
27 26 0
-25 -26 -27 0
-28 11 0
-28 -3 0
-11 3 28 0
-29 -28 0
-29 -8 0
28 8 29 0
24 3 -30 0
-24 -3 -30 0
24 -3 30 0
-24 3 30 0
-31 30 0
-31 -10 0
-30 10 31 0
18 31 -32 0
-18 -31 -32 0
18 -31 32 0
-18 31 32 0
33 -29 0
33 32 0
29 -32 -33 0
4 24 -34 0
-4 -24 -34 0
4 -24 34 0
-4 24 34 0
-34 -9 -35 0
34 9 -35 0
-34 9 35 0
34 -9 35 0
-35 -11 -36 0
35 11 -36 0
-35 11 36 0
35 -11 36 0
-37 33 0
-37 36 0
-33 -36 37 0
-39 -7 0
-39 38 0
7 -38 39 0
-40 -37 0
-40 -39 0
37 39 40 0
-15 -2 -41 0
15 2 -41 0
-15 2 41 0
15 -2 41 0
-42 -15 0
-42 41 0
15 -41 42 0
43 -7 0
43 -3 0
7 3 -43 0
10 -43 -44 0
-10 43 -44 0
10 43 44 0
-10 -43 44 0
-45 -42 0
-45 44 0
42 -44 45 0
46 -4 0
46 4 0
46 41 -47 0
-46 -41 -47 0
46 -41 47 0
-46 41 47 0
48 45 0
48 -47 0
-45 47 -48 0
40 -48 -49 0
-40 48 -49 0
40 48 49 0
-40 -48 49 0
50 -5 0
50 -15 0
5 15 -50 0
-51 -49 0
-51 50 0
49 -50 51 0
3 -52 -53 0
-3 52 -53 0
3 52 53 0
-3 -52 53 0
53 -34 -54 0
-53 34 -54 0
53 34 54 0
-53 -34 54 0
-42 8 -55 0
42 -8 -55 0
-42 -8 55 0
42 8 55 0
2 55 -56 0
-2 -55 -56 0
2 -55 56 0
-2 55 56 0
57 -54 0
57 56 0
54 -56 -57 0
-58 -51 0
-58 57 0
51 -57 58 0
59 -41 0
59 13 0
41 -13 -59 0
60 -11 0
60 53 0
11 -53 -60 0
61 -8 0
61 8 0
61 -34 -62 0
-61 34 -62 0
61 34 62 0
-61 -34 62 0
63 -1 0
63 -1 0
1 -63 0
-63 31 -64 0
63 -31 -64 0
-63 -31 64 0
63 31 64 0
-65 62 0
-65 64 0
-62 -64 65 0
66 2 0
66 52 0
-2 -52 -66 0
67 65 0
67 66 0
-65 -66 -67 0
-60 -67 -68 0
60 67 -68 0
-60 67 68 0
60 -67 68 0
69 59 0
69 -68 0
-59 68 -69 0
-15 -28 -70 0
15 28 -70 0
-15 28 70 0
15 -28 70 0
71 -70 0
71 -4 0
70 4 -71 0
72 4 0
72 -17 0
-4 17 -72 0
73 1 0
73 72 0
-1 -72 -73 0
-74 -71 0
-74 73 0
71 -73 74 0
-69 74 -75 0
69 -74 -75 0
-69 -74 75 0
69 74 75 0
-76 58 0
-76 75 0
-58 -75 76 0
-27 76 -77 0
27 -76 -77 0
-27 -76 77 0
27 76 77 0
22 -77 -78 0
-22 77 -78 0
22 77 78 0
-22 -77 78 0
-7 -40 -12 4 0
-4 52 59 0
-40 46 -27 -6 21 0
4 64 -43 65 0
-60 17 -70 -57 0
-54 -16 32 -70 0
26 -23 9 0
-72 34 68 0
-38 -37 76 0
8 40 30 0
-28 77 0
-51 27 53 -56 -73 0
-6 -22 -41 10 -39 -30 0
15 -8 -11 61 -57 75 0
-68 -59 3 66 32 0
73 -39 26 24 0
43 51 22 40 57 -14 0
66 28 0
-49 57 0
64 46 13 7 26 0
18 -20 -29 0
76 45 0
77 -16 45 0
-37 -7 22 41 -70 0
60 -12 54 37 -38 0
2 3 54 47 44 -12 0
27 32 54 0
-55 11 0
-34 58 48 -47 0
-21 2 0
-31 -44 30 -23 24 0
-18 -13 78 -61 0
-53 34 -73 23 -60 19 0
23 -51 27 -21 43 32 0
-72 -59 66 29 0
31 77 -23 0
-24 -63 -30 0
-21 -67 -76 -33 15 -17 0
-70 -8 0
-6 -42 0
68 -71 64 -58 0
36 -72 32 0
61 47 -29 -18 31 0
-55 70 57 -65 0
66 74 21 0
62 72 -13 -2 0
38 17 35 28 42 0
22 -75 -65 24 -31 -2 0
-71 -57 -12 -56 0
57 20 53 3 0
-71 74 -43 6 7 -75 0
53 -15 -1 65 25 0
-64 -41 30 76 0
-10 30 51 -58 -63 -46 0
-24 -25 78 5 -26 0
41 69 -38 19 60 74 0
44 66 -62 0
-46 -10 0
-64 -23 -27 -4 -49 0
61 52 -7 57 11 0
57 37 28 44 -29 -42 0
-18 -44 10 0
71 34 -28 37 0
10 -46 0
-12 -54 5 43 0
-32 -66 3 57 19 0
10 25 73 0
36 -45 -15 0
78 0
